NAME : n100w60.001.655.tour
COMMENT : Length = 655
COMMENT : Found by LKH [Keld Helsgaun] Tue May  2 05:18:30 2017
TYPE : TOUR
DIMENSION : 101
TOUR_SECTION
1
38
25
45
43
3
52
20
7
18
86
9
46
84
82
15
37
74
29
79
91
33
30
50
76
81
10
34
59
61
80
99
62
88
22
75
40
69
16
11
78
12
96
97
28
27
44
14
55
51
53
13
36
35
47
77
19
4
2
98
83
68
60
63
66
41
49
73
8
24
89
57
85
87
26
93
65
48
54
5
32
39
71
94
42
72
17
31
6
23
64
67
56
21
92
95
58
90
70
100
101
-1
EOF
